0
Node Left Objective IInf Best_Integer Best_Bound ItCnt Gap
0+ 0 nan nan 17080.7259 -1708.0726 nan 110.00%
0+ 0 nan nan -66.3573 -1708.0726 nan ---
0 0 -93.0816 11 -66.3573 -93.0816 79 40.27%
0+ 0 nan nan -85.7652 -93.0816 nan 8.53%
0 0 -93.0367 10 -85.7652 Flowcuts:1 80 8.48%
0 0 -92.4534 11 -85.7652 Flowcuts:4 83 7.80%
0 0 -92.3885 11 -85.7652 Flowcuts:1 87 7.72%
0 0 -92.3249 10 -85.7652 Flowcuts:1 91 7.65%
0 0 -92.2478 10 -85.7652 Flowcuts:1 92 7.56%
0 0 -92.2163 10 -85.7652 Flowcuts:1 93 7.52%
0+ 0 nan nan -86.1681 -92.2163 nan 7.02%
0 2 -91.1095 10 -86.1681 -90.9591 93 5.56%
CPXPARAM_MIP_Cuts_FlowCovers 4
1
Node Left Objective IInf Best_Integer Best_Bound ItCnt Gap
0+ 0 nan nan 17807.5550 -1780.7555 nan 110.00%
0+ 0 nan nan -246.6070 -1780.7555 nan 622.10%
0 0 -451.0443 22 -246.6070 -451.0443 124 82.90%
0+ 0 nan nan -437.4023 -451.0443 nan 3.12%
0 0 -451.0125 18 -437.4023 Flowcuts:1 125 3.11%
0+ 0 nan nan -441.7063 -451.0125 nan 2.11%
0 2 -451.0125 18 -441.7063 -450.9679 125 2.10%
CPXPARAM_MIP_Cuts_FlowCovers 1
2
Node Left Objective IInf Best_Integer Best_Bound ItCnt Gap
0+ 0 nan nan 21992.9672 -2199.2967 nan 110.00%
0+ 0 nan nan -144.9985 -2199.2967 nan ---
0 0 cutoff -144.9985 -144.9985 77 0.00%
0 0 cutoff -144.9985 -144.9985 77 0.00% 0
CPXPARAM_MIP_Cuts_FlowCovers 0
3
Node Left Objective IInf Best_Integer Best_Bound ItCnt Gap
0+ 0 nan nan 15130.5599 -1513.0560 nan 110.00%
0+ 0 nan nan -319.1991 -1513.0560 nan 374.02%
0 0 -373.2689 13 -319.1991 -373.2689 81 16.94%
0+ 0 nan nan -322.8337 -373.2689 nan 15.62%
0+ 0 nan nan -370.3112 -373.2689 nan 0.80%
0 1 -373.2689 7 -370.3112 -373.2689 89 0.80%
CPXPARAM_MIP_Cuts_FlowCovers 0
4
Node Left Objective IInf Best_Integer Best_Bound ItCnt Gap
0+ 0 nan nan 17229.3640 -1722.9364 nan 110.00%
0+ 0 nan nan -67.4145 -1722.9364 nan ---
0 0 -89.1646 11 -67.4145 -89.1646 97 32.26%
0 0 -89.1071 10 -67.4145 Flowcuts:4 98 32.18%
0 0 -89.1014 10 -67.4145 Flowcuts:2 100 32.17%
0+ 0 nan nan -85.3062 -89.1014 nan 4.45%
0 2 -87.9815 4 -85.3062 -87.9108 100 3.05%
CPXPARAM_MIP_Cuts_FlowCovers 3
5
Node Left Objective IInf Best_Integer Best_Bound ItCnt Gap
0+ 0 nan nan 19297.4075 -1929.7408 nan 110.00%
0+ 0 nan nan -216.7443 -1929.7408 nan 790.33%
0 0 -495.8139 18 -216.7443 -495.8139 104 128.76%
0+ 0 nan nan -360.6431 -495.8139 nan 37.48%
0+ 0 nan nan -484.0837 -495.8139 nan 2.42%
0 2 -495.8139 18 -484.0837 -495.6355 104 2.39%
CPXPARAM_MIP_Cuts_FlowCovers 0
6
Node Left Objective IInf Best_Integer Best_Bound ItCnt Gap
0+ 0 nan nan 17283.6857 -1728.3686 nan 110.00%
0+ 0 nan nan -89.3561 -1728.3686 nan ---
0 0 -92.8995 6 -89.3561 -92.8995 83 3.97%
0+ 0 nan nan -89.6971 -92.8995 nan 3.57%
0 2 -92.8995 4 -89.6971 -92.8995 83 3.57%
CPXPARAM_MIP_Cuts_FlowCovers 0
7
Node Left Objective IInf Best_Integer Best_Bound ItCnt Gap
0+ 0 nan nan 18737.7240 -1873.9213 nan 110.00%
0+ 0 nan nan -349.2878 -1873.9213 nan 436.50%
0 0 -476.7132 19 -349.2878 -476.7132 92 36.48%
0+ 0 nan nan -351.7851 -476.7132 nan 35.51%
0 0 -476.7132 11 -351.7851 Flowcuts:2 97 35.51%
0+ 0 nan nan -410.9742 -476.7132 nan 16.00%
0+ 0 nan nan -469.4209 -476.7132 nan 1.55%
0 2 -476.7132 11 -469.4209 -476.7132 97 1.55%
CPXPARAM_MIP_Cuts_FlowCovers 2
8
Node Left Objective IInf Best_Integer Best_Bound ItCnt Gap
0+ 0 nan nan 20324.0135 -2032.4014 nan 110.00%
0+ 0 nan nan -89.4132 -2032.4014 nan ---
0 0 -103.1383 11 -89.4132 -103.1383 78 15.35%
0 0 -103.0686 12 -89.4132 Flowcuts:2 80 15.27%
0 0 -103.0621 12 -89.4132 Flowcuts:3 83 15.26%
0 0 -103.0570 13 -89.4132 Flowcuts:1 84 15.26%
0+ 0 nan nan -102.0140 -103.0570 nan 1.02%
0 2 -102.6056 2 -102.0140 -102.4191 84 0.40%
CPXPARAM_MIP_Cuts_FlowCovers 5
9
Node Left Objective IInf Best_Integer Best_Bound ItCnt Gap
0+ 0 nan nan 19574.3912 -1957.4391 nan 110.00%
0+ 0 nan nan -340.7562 -1957.4391 nan 474.44%
0 0 -481.4397 15 -340.7562 -481.4397 75 41.29%
0+ 0 nan nan -474.2321 -481.4397 nan 1.52%
0 0 -481.3542 11 -474.2321 Flowcuts:3 77 1.50%
0 0 -481.3542 11 -474.2321 Flowcuts:1 78 1.50%
0+ 0 nan nan -474.5367 -481.3542 nan 1.44%
0 2 -481.3542 11 -474.5367 -481.1000 78 1.38%
CPXPARAM_MIP_Cuts_FlowCovers 2
10
Node Left Objective IInf Best_Integer Best_Bound ItCnt Gap
0+ 0 nan nan 27187.3215 -2718.7321 nan 110.00%
0+ 0 nan nan 10.9576 -2718.7321 nan ---
0 0 -173.4759 5 10.9576 -173.4759 75 ---
0+ 0 nan nan 7.7729 -173.4759 nan ---
0+ 0 nan nan -171.3795 -173.4759 nan 1.22%
0 2 -173.4759 3 -171.3795 -173.4759 75 1.22%
CPXPARAM_MIP_Cuts_FlowCovers 0
11
Node Left Objective IInf Best_Integer Best_Bound ItCnt Gap
0+ 0 nan nan 22470.7077 -2247.0708 nan 110.00%
0+ 0 nan nan -339.2451 -2247.0708 nan 562.37%
0 0 -573.6242 10 -339.2451 -573.6242 79 69.09%
0+ 0 nan nan -570.2156 -573.6242 nan 0.60%
0 2 -573.6242 10 -570.2156 -573.6242 79 0.60%
CPXPARAM_MIP_Cuts_FlowCovers 0
12
Node Left Objective IInf Best_Integer Best_Bound ItCnt Gap
0+ 0 nan nan 21290.0070 -2129.0007 nan 110.00%
0+ 0 nan nan -108.2542 -2129.0007 nan ---
0 0 -125.5769 9 -108.2542 -125.5769 93 16.00%
0+ 0 nan nan -118.3639 -125.5769 nan 6.09%
0 0 -125.5457 9 -118.3639 Flowcuts:2 95 6.07%
0 0 -125.5337 11 -118.3639 Flowcuts:1 99 6.06%
0 0 -125.3045 9 -118.3639 Flowcuts:1 102 5.86%
0+ 0 nan nan -118.5530 -125.3045 nan 5.69%
0 2 -125.3045 9 -118.5530 -125.0493 102 5.48%
CPXPARAM_MIP_Cuts_FlowCovers 3
13
Node Left Objective IInf Best_Integer Best_Bound ItCnt Gap
0+ 0 nan nan 18711.1828 -1871.1183 nan 110.00%
0+ 0 nan nan -86.7463 -1871.1183 nan ---
0 0 -468.4244 16 -86.7463 -468.4244 90 439.99%
0+ 0 nan nan -462.1230 -468.4244 nan 1.36%
0 0 -468.3877 17 -462.1230 Flowcuts:2 91 1.36%
0 0 -468.3276 18 -462.1230 Flowcuts:5 97 1.34%
0 0 -468.3123 17 -462.1230 Flowcuts:5 101 1.34%
0 0 -468.3123 16 -462.1230 Flowcuts:1 102 1.34%
0 2 -468.3123 15 -462.1230 -468.1979 102 1.31%
CPXPARAM_MIP_Cuts_FlowCovers 10
14
Node Left Objective IInf Best_Integer Best_Bound ItCnt Gap
0+ 0 nan nan 22739.1838 -2273.9184 nan 110.00%
0+ 0 nan nan -144.2844 -2273.9184 nan ---
0 0 -146.9071 10 -144.2844 -146.9071 80 1.82%
0 0 -146.9071 7 -144.2844 Flowcuts:2 84 1.82%
0 0 -146.9071 8 -144.2844 Flowcuts:2 87 1.82%
0 0 -146.9071 6 -144.2844 Flowcuts:4 95 1.82%
0 2 -146.9071 5 -144.2844 -146.9071 95 1.82%
CPXPARAM_MIP_Cuts_FlowCovers 3
15
Node Left Objective IInf Best_Integer Best_Bound ItCnt Gap
0+ 0 nan nan 20293.1236 -2029.3124 nan 110.00%
0+ 0 nan nan -243.7454 -2029.3124 nan 732.55%
0 0 -518.7322 13 -243.7454 -518.7322 83 112.82%
0+ 0 nan nan -315.8010 -518.7322 nan 64.26%
0+ 0 nan nan -450.6273 -518.7322 nan 15.11%
0+ 0 nan nan -514.2581 -518.7322 nan 0.87%
0 2 -518.7322 7 -514.2581 -518.7322 83 0.87%
CPXPARAM_MIP_Cuts_FlowCovers 0
16
Node Left Objective IInf Best_Integer Best_Bound ItCnt Gap
0+ 0 nan nan 21872.1954 -2187.2195 nan 110.00%
0+ 0 nan nan -112.2220 -2187.2195 nan ---
0 0 -126.4787 11 -112.2220 -126.4787 89 12.70%
0+ 0 nan nan -117.7499 -126.4787 nan 7.41%
0+ 0 nan nan -119.9360 -126.4787 nan 5.46%
0 2 -126.4787 11 -119.9360 -126.4755 89 5.45%
CPXPARAM_MIP_Cuts_FlowCovers 0
17
Node Left Objective IInf Best_Integer Best_Bound ItCnt Gap
0+ 0 nan nan 16639.6111 -1663.9611 nan 110.00%
0+ 0 nan nan -399.5270 -1663.9611 nan 316.48%
0 0 -404.1656 14 -399.5270 -404.1656 83 1.16%
0 2 -404.1656 13 -399.5270 -403.8326 83 1.08%
CPXPARAM_MIP_Cuts_FlowCovers 0
18
Node Left Objective IInf Best_Integer Best_Bound ItCnt Gap
0+ 0 nan nan 18821.9021 -1882.1902 nan 110.00%
0+ 0 nan nan -97.2991 -1882.1902 nan ---
0 0 -99.0172 8 -97.2991 -99.0172 77 1.77%
0 2 -99.0172 5 -97.2991 -99.0172 77 1.77%
CPXPARAM_MIP_Cuts_FlowCovers 0
19
Node Left Objective IInf Best_Integer Best_Bound ItCnt Gap
0+ 0 nan nan 19012.1137 -1901.2740 nan 110.00%
0+ 0 nan nan -411.3325 -1901.2740 nan 362.22%
0 0 -474.7865 8 -411.3325 -474.7865 76 15.43%
0+ 0 nan nan -411.4107 -474.7865 nan 15.40%
0+ 0 nan nan -472.5175 -474.7865 nan 0.48%
0 2 -474.7865 5 -472.5175 -474.7865 76 0.48%
CPXPARAM_MIP_Cuts_FlowCovers 0
20
Node Left Objective IInf Best_Integer Best_Bound ItCnt Gap
0+ 0 nan nan 15115.0246 -1511.5025 nan 110.00%
0+ 0 nan nan -66.4447 -1511.5025 nan ---
0 0 -90.2455 12 -66.4447 -90.2455 91 35.82%
0 0 -90.2183 12 -66.4447 Flowcuts:4 93 35.78%
0 0 -90.1744 12 -66.4447 Flowcuts:8 97 35.71%
0 0 -90.0631 12 -66.4447 Flowcuts:5 103 35.55%
0 0 -90.0226 13 -66.4447 Flowcuts:3 109 35.48%
0+ 0 nan nan -88.1244 -90.0226 nan 2.15%
0 0 cutoff -88.1244 -90.0226 109 2.15% 0
CPXPARAM_MIP_Cuts_FlowCovers 5
21
Node Left Objective IInf Best_Integer Best_Bound ItCnt Gap
0+ 0 nan nan 15333.4248 -1533.3425 nan 110.00%
0+ 0 nan nan -221.9629 -1533.3425 nan 590.81%
0 0 -397.2126 26 -221.9629 -397.2126 110 78.95%
0+ 0 nan nan -235.8252 -397.2126 nan 68.44%
0 0 -397.1772 27 -235.8252 Flowcuts:2 112 68.42%
0 0 -397.1023 29 -235.8252 Flowcuts:4 115 68.39%
0 0 -396.8346 28 -235.8252 Flowcuts:4 126 68.27%
0 0 -396.6307 27 -235.8252 Flowcuts:4 137 68.19%
0 0 -396.5703 27 -235.8252 Flowcuts:2 140 68.16%
0 0 -396.5528 27 -235.8252 Flowcuts:2 146 68.16%
0 0 -396.5292 26 -235.8252 Flowcuts:1 148 68.15%
0+ 0 nan nan -384.0136 -396.5292 nan 3.26%
0+ 0 nan nan -384.0446 -396.5292 nan 3.25%
0 2 -396.4512 26 -384.0446 -396.0984 148 3.14%
CPXPARAM_MIP_Cuts_FlowCovers 13
22
Node Left Objective IInf Best_Integer Best_Bound ItCnt Gap
0+ 0 nan nan 15579.5689 -1557.9569 nan 110.00%
0+ 0 nan nan -75.9857 -1557.9569 nan ---
0 0 -96.9770 4 -75.9857 -96.9770 80 27.63%
0+ 0 nan nan -96.9770 -96.9770 nan 0.00%
0 0 cutoff -96.9770 -96.9770 80 0.00% 0
CPXPARAM_MIP_Cuts_FlowCovers 0
23
Node Left Objective IInf Best_Integer Best_Bound ItCnt Gap
0+ 0 nan nan 16097.8588 -1609.8715 nan 110.00%
0+ 0 nan nan -135.1706 -1609.8715 nan ---
0 0 -420.0439 21 -135.1706 -420.0439 92 210.75%
0+ 0 nan nan -205.3944 -420.0439 nan 104.51%
0+ 0 nan nan -308.1357 -420.0439 nan 36.32%
0+ 0 nan nan -408.5789 -420.0439 nan 2.81%
0+ 0 nan nan -408.9864 -420.0439 nan 2.70%
0 2 -420.0439 21 -408.9864 -419.6488 92 2.61%
CPXPARAM_MIP_Cuts_FlowCovers 0
24
Node Left Objective IInf Best_Integer Best_Bound ItCnt Gap
0+ 0 nan nan 18436.4445 -1843.6444 nan 110.00%
0+ 0 nan nan -94.2493 -1843.6444 nan ---
0 0 -115.3546 13 -94.2493 -115.3546 85 22.39%
0+ 0 nan nan -112.0044 -115.3546 nan 2.99%
0 0 -115.3476 9 -112.0044 Flowcuts:1 86 2.98%
0 2 -113.7335 4 -112.0044 -113.6370 86 1.46%
CPXPARAM_MIP_Cuts_FlowCovers 1
25
Node Left Objective IInf Best_Integer Best_Bound ItCnt Gap
0+ 0 nan nan 18806.7169 -1880.6717 nan 110.00%
0+ 0 nan nan -288.0183 -1880.6717 nan 552.97%
0 0 -492.8236 25 -288.0183 -492.8236 100 71.11%
0+ 0 nan nan -362.9258 -492.8236 nan 35.79%
0 0 -492.4065 25 -362.9258 Flowcuts:7 110 35.68%
0 0 -492.3455 26 -362.9258 Flowcuts:3 115 35.66%
0 0 -492.3261 26 -362.9258 Flowcuts:1 118 35.65%
0 0 -492.3043 27 -362.9258 Flowcuts:1 126 35.65%
0+ 0 nan nan -478.0669 -492.3043 nan 2.98%
0+ 0 nan nan -479.4819 -492.3043 nan 2.67%
0 2 -492.3043 27 -479.4819 -492.0914 126 2.63%
CPXPARAM_MIP_Cuts_FlowCovers 8
26
Node Left Objective IInf Best_Integer Best_Bound ItCnt Gap
0+ 0 nan nan 18555.8907 -1855.7233 nan 110.00%
0+ 0 nan nan -104.0034 -1855.7233 nan ---
0 0 -115.9815 5 -104.0034 -115.9815 67 11.52%
0+ 0 nan nan -115.9815 -115.9815 nan 0.00%
0 0 cutoff -115.9815 -115.9815 67 0.00% 0
CPXPARAM_MIP_Cuts_FlowCovers 0
27
Node Left Objective IInf Best_Integer Best_Bound ItCnt Gap
0+ 0 nan nan 17101.2086 -1710.7893 nan 110.00%
0+ 0 nan nan -257.8104 -1710.7893 nan 563.58%
0 0 -441.6815 19 -257.8104 -441.6815 93 71.32%
0+ 0 nan nan -327.4274 -441.6815 nan 34.89%
0+ 0 nan nan -431.3192 -441.6815 nan 2.40%
0+ 0 nan nan -433.6572 -441.6815 nan 1.85%
0 2 -441.6815 19 -433.6572 -441.5290 93 1.82%
CPXPARAM_MIP_Cuts_FlowCovers 0
28
Node Left Objective IInf Best_Integer Best_Bound ItCnt Gap
0+ 0 nan nan 23195.9038 -2319.5904 nan 110.00%
0+ 0 nan nan -104.6712 -2319.5904 nan ---
0 0 -120.0533 11 -104.6712 -120.0533 77 14.70%
0 0 -120.0267 11 -104.6712 Flowcuts:1 78 14.67%
0 0 -119.9755 11 -104.6712 Flowcuts:3 80 14.62%
0 0 -119.9640 10 -104.6712 Flowcuts:4 84 14.61%
0+ 0 nan nan -112.0917 -119.9640 nan 7.02%
0+ 0 nan nan -115.2003 -119.9640 nan 4.14%
0 2 -119.7239 8 -115.2003 -119.6034 84 3.82%
CPXPARAM_MIP_Cuts_FlowCovers 5
29
Node Left Objective IInf Best_Integer Best_Bound ItCnt Gap
0+ 0 nan nan 18473.6572 -1847.3657 nan 110.00%
0+ 0 nan nan -427.6235 -1847.3657 nan 332.01%
0 0 -444.7353 17 -427.6235 -444.7353 96 4.00%
0 0 -444.4780 10 -427.6235 Flowcuts:6 98 3.94%
0 0 -444.4433 9 -427.6235 Flowcuts:4 102 3.93%
0 0 -444.3725 12 -427.6235 Flowcuts:4 111 3.92%
0 0 -444.3538 11 -427.6235 Flowcuts:2 117 3.91%
0 0 -444.2956 12 -427.6235 Flowcuts:9 125 3.90%
0 0 -444.2896 11 -427.6235 Flowcuts:1 127 3.90%
0 0 -444.2836 16 -427.6235 Flowcuts:4 136 3.90%
0+ 0 nan nan -441.1131 -444.2836 nan 0.72%
0 2 -443.9915 6 -441.1131 -443.9744 136 0.65%
CPXPARAM_MIP_Cuts_FlowCovers 13
30
Node Left Objective IInf Best_Integer Best_Bound ItCnt Gap
0+ 0 nan nan 20012.4297 -2001.2537 nan 110.00%
0+ 0 nan nan -82.7793 -2001.2537 nan ---
0 0 -93.4019 2 -82.7793 -93.4019 66 12.83%
0+ 0 nan nan -93.4019 -93.4019 nan 0.00%
CPXPARAM_MIP_Cuts_FlowCovers 0
31
Node Left Objective IInf Best_Integer Best_Bound ItCnt Gap
0+ 0 nan nan 20469.5526 -2046.9553 nan 110.00%
0+ 0 nan nan -497.9458 -2046.9553 nan 311.08%
0 0 -506.7396 12 -497.9458 -506.7396 92 1.77%
0+ 0 nan nan -501.8232 -506.7396 nan 0.98%
0+ 0 nan nan -506.6867 -506.7396 nan 0.01%
0 0 cutoff -506.6867 -506.7396 96 0.01% 0
CPXPARAM_MIP_Cuts_FlowCovers 0
32
Node Left Objective IInf Best_Integer Best_Bound ItCnt Gap
0+ 0 nan nan 13911.0729 -1391.1073 nan 110.00%
0+ 0 nan nan -39.6136 -1391.1073 nan ---
0 0 -68.2827 6 -39.6136 -68.2827 77 72.37%
0+ 0 nan nan -65.9578 -68.2827 nan 3.52%
0 0 -68.0316 7 -65.9578 Flowcuts:3 80 3.14%
0 0 cutoff -65.9578 -68.0316 80 3.14% 0
CPXPARAM_MIP_Cuts_FlowCovers 1
33
Node Left Objective IInf Best_Integer Best_Bound ItCnt Gap
0+ 0 nan nan 16748.4512 -1674.8451 nan 110.00%
0+ 0 nan nan -180.4833 -1674.8451 nan 827.98%
0 0 -425.8102 14 -180.4833 -425.8102 120 135.93%
0+ 0 nan nan -362.2668 -425.8102 nan 17.54%
0+ 0 nan nan -415.1403 -425.8102 nan 2.57%
0+ 0 nan nan -416.3040 -425.8102 nan 2.28%
0 2 -425.8102 10 -416.3040 -425.2343 120 2.15%
CPXPARAM_MIP_Cuts_FlowCovers 0
34
Node Left Objective IInf Best_Integer Best_Bound ItCnt Gap
0+ 0 nan nan 19055.0102 -1905.5010 nan 110.00%
0+ 0 nan nan -113.0294 -1905.5010 nan ---
0 0 -121.1718 5 -113.0294 -121.1718 75 7.20%
0+ 0 nan nan -117.8797 -121.1718 nan 2.79%
0 2 -121.1718 5 -117.8797 -121.1718 75 2.79%
CPXPARAM_MIP_Cuts_FlowCovers 0
35
Node Left Objective IInf Best_Integer Best_Bound ItCnt Gap
0+ 0 nan nan 16780.9114 -1678.3241 nan 110.00%
0+ 0 nan nan -187.6361 -1678.3241 nan 794.46%
0 0 -420.9670 14 -187.6361 -420.9670 75 124.35%
0+ 0 nan nan -253.1346 -420.9670 nan 66.30%
0+ 0 nan nan -417.9530 -420.9670 nan 0.72%
0 2 -420.9670 9 -417.9530 -420.9670 75 0.72%
CPXPARAM_MIP_Cuts_FlowCovers 0
36
Node Left Objective IInf Best_Integer Best_Bound ItCnt Gap
0+ 0 nan nan 22941.7465 -2294.1747 nan 110.00%
0+ 0 nan nan -123.5349 -2294.1747 nan ---
0 0 -146.5944 12 -123.5349 -146.5944 96 18.67%
0+ 0 nan nan -133.5300 -146.5944 nan 9.78%
0+ 0 nan nan -139.5063 -146.5944 nan 5.08%
0 2 -145.7946 5 -139.5063 -144.7049 96 3.73%
CPXPARAM_MIP_Cuts_FlowCovers 0
37
Node Left Objective IInf Best_Integer Best_Bound ItCnt Gap
0+ 0 nan nan 22253.7712 -2225.3771 nan 110.00%
0+ 0 nan nan -192.7597 -2225.3771 nan ---
0 0 -583.6149 25 -192.7597 -583.6149 103 202.77%
0+ 0 nan nan -350.5396 -583.6149 nan 66.49%
0+ 0 nan nan -558.3198 -583.6149 nan 4.53%
0+ 0 nan nan -563.3003 -583.6149 nan 3.61%
0 2 -583.6149 25 -563.3003 -583.3797 103 3.56%
CPXPARAM_MIP_Cuts_FlowCovers 0
38
Node Left Objective IInf Best_Integer Best_Bound ItCnt Gap
0+ 0 nan nan 19121.8104 -1912.4176 nan 110.00%
0+ 0 nan nan -95.8861 -1912.4176 nan ---
0 0 -109.3384 7 -95.8861 -109.3384 75 14.03%
0+ 0 nan nan -109.3384 -109.3384 nan 0.00%
0 0 cutoff -109.3384 -109.3384 75 0.00% 0
CPXPARAM_MIP_Cuts_FlowCovers 0
39
Node Left Objective IInf Best_Integer Best_Bound ItCnt Gap
0+ 0 nan nan 22617.4474 -2261.8298 nan 110.00%
0+ 0 nan nan -361.4650 -2261.8298 nan 525.74%
0 0 -588.7435 24 -361.4650 -588.7435 97 62.88%
0+ 0 nan nan -434.4180 -588.7435 nan 35.52%
0+ 0 nan nan -504.0914 -588.7435 nan 16.79%
0+ 0 nan nan -575.8452 -588.7435 nan 2.24%
0 2 -588.7435 23 -575.8452 -588.1016 97 2.13%
CPXPARAM_MIP_Cuts_FlowCovers 0
